(set-logic HORN)
(declare-fun array_quick_sort@summary ((Array Int Int) Int Int Int ) Bool)
(declare-fun array_quick_sort@pre ((Array Int Int) Int Int Int ) Bool)
(assert (forall ((array@0 (Array Int Int))(.array!size@0 Int)(start@0 Int)(end@0 Int)(pi@0 Int)) (=> (and (array_quick_sort@pre |array@0| |.array!size@0| |start@0| |end@0|) (< |start@0| |end@0|) (forall ((k@0 Int)) (=> (and (<= |start@0| |k@0|) (<= |k@0| |pi@0|)) (<= (select |array@0| |k@0|) (select |array@0| |pi@0|)))) (forall ((k@0 Int)) (=> (and (<= (+ |pi@0| 1) |k@0|) (<= |k@0| |end@0|)) (>= (select |array@0| |k@0|) (select |array@0| |pi@0|)))) (<= |start@0| |pi@0|) (<= |pi@0| |end@0|)) (array_quick_sort@pre |array@0| |.array!size@0| |start@0| (- |pi@0| 1)))))
(assert (forall ((array@0 (Array Int Int))(.array!size@0 Int)(start@0 Int)(end@0 Int)(pi@0 Int)) (=> (and (array_quick_sort@summary |array@0| |.array!size@0| |start@0| (- |pi@0| 1)) (array_quick_sort@pre |array@0| |.array!size@0| |start@0| (- |pi@0| 1)) (array_quick_sort@pre |array@0| |.array!size@0| |start@0| |end@0|) (< |start@0| |end@0|) (forall ((k@0 Int)) (=> (and (<= |start@0| |k@0|) (<= |k@0| |pi@0|)) (<= (select |array@0| |k@0|) (select |array@0| |pi@0|)))) (forall ((k@0 Int)) (=> (and (<= (+ |pi@0| 1) |k@0|) (<= |k@0| |end@0|)) (>= (select |array@0| |k@0|) (select |array@0| |pi@0|)))) (<= |start@0| |pi@0|) (<= |pi@0| |end@0|)) (array_quick_sort@pre |array@0| |.array!size@0| (+ |pi@0| 1) |end@0|))))
(assert (forall ((N@0 Int)(array@0 (Array Int Int))) (=> (> |N@0| 0) (array_quick_sort@pre |array@0| |N@0| 0 (- |N@0| 1)))))
(assert (forall ((N@0 Int)(array@0 (Array Int Int))) (=> (and (array_quick_sort@summary |array@0| |N@0| 0 (- |N@0| 1)) (array_quick_sort@pre |array@0| |N@0| 0 (- |N@0| 1)) (> |N@0| 0) (not (forall ((k@0 Int)(l@0 Int)) (=> (and (<= 0 |k@0|) (< |k@0| (- |N@0| 1))) (=> (and (<= (+ |k@0| 1) |l@0|) (< |l@0| |N@0|)) (<= (select |array@0| |k@0|) (select |array@0| |l@0|))))))) false)))
(assert (forall ((array@0 (Array Int Int))(.array!size@0 Int)(start@0 Int)(end@0 Int)(pi@0 Int)) (=> (and (array_quick_sort@summary |array@0| |.array!size@0| (+ |pi@0| 1) |end@0|) (array_quick_sort@pre |array@0| |.array!size@0| (+ |pi@0| 1) |end@0|) (array_quick_sort@summary |array@0| |.array!size@0| |start@0| (- |pi@0| 1)) (array_quick_sort@pre |array@0| |.array!size@0| |start@0| (- |pi@0| 1)) (array_quick_sort@pre |array@0| |.array!size@0| |start@0| |end@0|) (< |start@0| |end@0|) (forall ((k@0 Int)) (=> (and (<= |start@0| |k@0|) (<= |k@0| |pi@0|)) (<= (select |array@0| |k@0|) (select |array@0| |pi@0|)))) (forall ((k@0 Int)) (=> (and (<= (+ |pi@0| 1) |k@0|) (<= |k@0| |end@0|)) (>= (select |array@0| |k@0|) (select |array@0| |pi@0|)))) (<= |start@0| |pi@0|) (<= |pi@0| |end@0|)) (array_quick_sort@summary |array@0| |.array!size@0| |start@0| |end@0|))))
(assert (forall ((array@0 (Array Int Int))(.array!size@0 Int)(start@0 Int)(end@0 Int)) (=> (and (not (< |start@0| |end@0|)) (array_quick_sort@pre |array@0| |.array!size@0| |start@0| |end@0|)) (array_quick_sort@summary |array@0| |.array!size@0| |start@0| |end@0|))))
(check-sat)